set VV := 0 1 2 3 4 5 6 7 8 9 10 11 12 13 14 15 16 17 18 19 20 21 22 23 24 25 26 27 28 29 30 31 32 33 34 35 36 37 38 39 40 41 ;
set VS := 0 1 2 3 4 5 6 7 8 9 10 11 12 13 14 15 16 17 18 19 20 21 22 23 24 25 26 27 28 29 30 31 32 33 34 35 36 37 38 39 40 41 42 43 44 45 46 47 48 49 50 51 52 53 54 55 56 57 58 59 60 61 62 63 64 65 66 67 68 69 70 71 72 73 74 75 76 77 78 79 80 81 82 83 84 85 86 87 ;
param cv := 
0 16
1 19
2 10
3 10
4 11
5 18
6 20
7 12
8 23
9 17
10 21
11 10
12 18
13 20
14 10
15 18
16 22
17 11
18 25
19 23
20 11
21 24
22 10
23 15
24 13
25 15
26 14
27 15
28 17
29 12
30 10
31 25
32 15
33 18
34 18
35 24
36 24
37 24
38 16
39 19
40 23
41 17
;
param cs := 
0 20
1 34
2 20
3 22
4 30
5 26
6 36
7 38
8 33
9 36
10 40
11 38
12 25
13 34
14 33
15 23
16 36
17 29
18 23
19 32
20 26
21 23
22 31
23 28
24 34
25 30
26 33
27 28
28 27
29 25
30 33
31 32
32 38
33 20
34 36
35 32
36 38
37 36
38 23
39 22
40 24
41 29
42 24
43 29
44 36
45 40
46 26
47 22
48 29
49 36
50 28
51 24
52 32
53 32
54 31
55 34
56 30
57 22
58 32
59 28
60 37
61 38
62 25
63 25
64 39
65 40
66 22
67 32
68 39
69 34
70 31
71 24
72 40
73 40
74 37
75 21
76 36
77 29
78 32
79 27
80 37
81 40
82 31
83 38
84 21
85 32
86 40
87 34
;
param bv:	 0 1 2 3 4 5 6 7 8 9 10 11 12 13 14 15 16 17 18 19 20 21 22 23 24 25 26 27 28 29 30 31 32 33 34 35 36 37 38 39 40 41 := 
		0 0 0 25 0 0 0 0 0 0 0 0 0 0 0 0 0 0 0 24 0 0 0 0 0 0 0 0 0 0 0 0 23 0 0 12 0 0 0 0 0 22 0 
		1 0 0 0 0 0 0 0 0 0 18 0 0 17 0 0 0 0 0 0 10 0 0 0 0 0 0 0 0 0 0 0 0 0 0 0 0 0 0 0 0 13 0 
		2 0 0 0 0 0 0 0 0 0 0 0 0 0 0 14 0 0 0 0 0 0 0 0 0 0 0 0 0 0 0 22 0 0 0 0 0 0 0 0 0 0 0 
		3 0 0 0 0 0 0 0 0 0 0 0 0 18 0 0 0 0 16 15 0 0 0 0 0 0 0 0 0 0 0 0 0 0 0 15 0 0 0 0 25 0 0 
		4 0 0 0 0 0 0 0 0 0 0 0 0 0 0 25 0 0 0 0 0 23 0 0 0 18 0 0 0 0 19 0 0 0 22 0 0 0 0 0 0 0 0 
		5 0 0 0 0 0 0 0 0 0 0 0 25 0 0 0 25 0 0 0 0 0 0 0 0 0 0 0 0 15 0 0 0 0 0 0 0 0 0 0 0 0 0 
		6 0 0 0 0 0 0 0 0 0 0 0 0 0 0 0 0 0 16 0 0 0 0 0 14 0 0 19 0 0 0 0 11 0 0 0 0 0 10 0 0 0 0 
		7 0 0 0 0 0 0 0 0 10 0 0 0 0 0 0 17 0 0 0 0 17 0 0 0 21 0 0 0 0 0 14 0 0 0 0 0 0 0 0 0 0 0 
		8 0 0 0 0 0 0 0 0 0 10 0 0 0 0 0 0 0 0 0 0 0 0 0 0 13 0 0 0 0 0 0 0 0 21 0 0 0 0 20 0 0 0 
		9 0 0 0 0 0 0 0 0 0 0 0 0 11 0 12 0 0 0 0 0 0 0 0 0 0 0 0 0 0 0 0 0 0 0 0 0 0 0 0 0 0 0 
		10 0 0 0 0 0 0 0 0 0 0 0 0 0 0 0 0 0 0 0 0 0 0 0 25 0 0 0 0 0 0 0 0 0 0 0 24 0 0 0 0 0 0 
		11 0 0 0 0 0 0 0 0 0 0 0 0 0 0 0 17 0 0 0 0 0 0 0 0 0 0 0 0 0 0 0 0 13 0 0 0 0 0 0 0 24 24 
		12 0 0 0 0 0 0 0 0 0 0 0 0 0 0 0 0 0 0 10 0 0 0 0 0 0 24 0 0 16 0 0 0 0 0 0 0 0 0 10 22 0 0 
		13 0 0 0 0 0 0 0 0 0 0 0 0 0 0 0 16 0 0 0 11 0 0 0 0 0 0 0 0 0 0 11 0 0 0 0 0 0 0 0 0 0 0 
		14 0 0 0 0 0 0 0 0 0 0 0 0 0 0 0 0 0 16 0 0 0 17 0 0 0 25 0 0 0 0 0 0 0 0 0 0 0 0 0 0 0 0 
		15 0 0 0 0 0 0 0 0 0 0 0 0 0 0 0 0 0 0 0 12 0 0 0 0 0 0 0 0 0 0 0 0 0 0 0 0 14 0 0 0 0 0 
		16 0 0 0 0 0 0 0 0 0 0 0 0 0 0 0 0 0 0 0 0 0 0 0 0 0 0 0 0 0 0 0 0 0 0 0 0 0 0 0 0 0 19 
		17 0 0 0 0 0 0 0 0 0 0 0 0 0 0 0 0 0 0 0 18 0 11 0 0 0 0 0 0 0 0 0 0 0 0 0 0 0 0 0 13 0 0 
		18 0 0 0 0 0 0 0 0 0 0 0 0 0 0 0 0 0 0 0 0 0 0 0 0 0 0 0 0 0 0 0 0 0 0 0 0 0 16 14 0 0 0 
		19 0 0 0 0 0 0 0 0 0 0 0 0 0 0 0 0 0 0 0 0 0 0 0 0 0 0 0 0 0 0 0 0 0 0 0 0 0 0 0 0 0 0 
		20 0 0 0 0 0 0 0 0 0 0 0 0 0 0 0 0 0 0 0 0 0 0 0 0 0 0 0 0 0 0 0 0 12 0 0 0 0 0 13 0 0 0 
		21 0 0 0 0 0 0 0 0 0 0 0 0 0 0 0 0 0 0 0 0 0 0 0 0 0 15 22 0 0 0 0 0 15 0 14 0 0 0 0 11 0 0 
		22 0 0 0 0 0 0 0 0 0 0 0 0 0 0 0 0 0 0 0 0 0 0 0 0 16 0 0 0 0 0 0 0 0 0 0 0 0 0 0 17 12 0 
		23 0 0 0 0 0 0 0 0 0 0 0 0 0 0 0 0 0 0 0 0 0 0 0 0 0 0 0 0 0 0 0 11 0 22 0 0 0 0 0 0 0 0 
		24 0 0 0 0 0 0 0 0 0 0 0 0 0 0 0 0 0 0 0 0 0 0 0 0 0 0 0 0 0 22 0 0 0 0 0 0 0 0 0 25 17 0 
		25 0 0 0 0 0 0 0 0 0 0 0 0 0 0 0 0 0 0 0 0 0 0 0 0 0 0 0 0 0 10 20 0 0 0 0 0 0 21 24 0 16 0 
		26 0 0 0 0 0 0 0 0 0 0 0 0 0 0 0 0 0 0 0 0 0 0 0 0 0 0 0 0 0 0 0 0 0 25 0 0 0 0 0 0 0 0 
		27 0 0 0 0 0 0 0 0 0 0 0 0 0 0 0 0 0 0 0 0 0 0 0 0 0 0 0 0 0 0 0 0 0 0 0 12 0 0 10 0 25 0 
		28 0 0 0 0 0 0 0 0 0 0 0 0 0 0 0 0 0 0 0 0 0 0 0 0 0 0 0 0 0 0 0 0 0 0 0 0 0 0 0 0 0 0 
		29 0 0 0 0 0 0 0 0 0 0 0 0 0 0 0 0 0 0 0 0 0 0 0 0 0 0 0 0 0 0 0 0 0 0 0 0 0 0 0 10 21 0 
		30 0 0 0 0 0 0 0 0 0 0 0 0 0 0 0 0 0 0 0 0 0 0 0 0 0 0 0 0 0 0 0 0 0 0 0 0 0 0 0 17 0 0 
		31 0 0 0 0 0 0 0 0 0 0 0 0 0 0 0 0 0 0 0 0 0 0 0 0 0 0 0 0 0 0 0 0 0 0 0 0 0 21 0 0 0 0 
		32 0 0 0 0 0 0 0 0 0 0 0 0 0 0 0 0 0 0 0 0 0 0 0 0 0 0 0 0 0 0 0 0 0 0 0 0 0 0 0 0 17 0 
		33 0 0 0 0 0 0 0 0 0 0 0 0 0 0 0 0 0 0 0 0 0 0 0 0 0 0 0 0 0 0 0 0 0 0 0 0 16 0 24 0 0 0 
		34 0 0 0 0 0 0 0 0 0 0 0 0 0 0 0 0 0 0 0 0 0 0 0 0 0 0 0 0 0 0 0 0 0 0 0 0 0 0 0 0 0 0 
		35 0 0 0 0 0 0 0 0 0 0 0 0 0 0 0 0 0 0 0 0 0 0 0 0 0 0 0 0 0 0 0 0 0 0 0 0 16 0 0 0 0 0 
		36 0 0 0 0 0 0 0 0 0 0 0 0 0 0 0 0 0 0 0 0 0 0 0 0 0 0 0 0 0 0 0 0 0 0 0 0 0 0 0 0 0 0 
		37 0 0 0 0 0 0 0 0 0 0 0 0 0 0 0 0 0 0 0 0 0 0 0 0 0 0 0 0 0 0 0 0 0 0 0 0 0 0 11 0 0 0 
		38 0 0 0 0 0 0 0 0 0 0 0 0 0 0 0 0 0 0 0 0 0 0 0 0 0 0 0 0 0 0 0 0 0 0 0 0 0 0 0 0 0 0 
		39 0 0 0 0 0 0 0 0 0 0 0 0 0 0 0 0 0 0 0 0 0 0 0 0 0 0 0 0 0 0 0 0 0 0 0 0 0 0 0 0 0 22 
		40 0 0 0 0 0 0 0 0 0 0 0 0 0 0 0 0 0 0 0 0 0 0 0 0 0 0 0 0 0 0 0 0 0 0 0 0 0 0 0 0 0 0 
		41 0 0 0 0 0 0 0 0 0 0 0 0 0 0 0 0 0 0 0 0 0 0 0 0 0 0 0 0 0 0 0 0 0 0 0 0 0 0 0 0 0 0 
;
param bs:	 0 1 2 3 4 5 6 7 8 9 10 11 12 13 14 15 16 17 18 19 20 21 22 23 24 25 26 27 28 29 30 31 32 33 34 35 36 37 38 39 40 41 42 43 44 45 46 47 48 49 50 51 52 53 54 55 56 57 58 59 60 61 62 63 64 65 66 67 68 69 70 71 72 73 74 75 76 77 78 79 80 81 82 83 84 85 86 87 := 
		0 0 0 0 0 27 0 35 0 0 40 0 0 0 0 0 0 0 0 0 0 39 0 21 0 0 29 0 0 0 0 0 0 0 0 0 0 0 0 0 0 0 0 0 0 37 0 0 0 0 0 0 0 31 0 0 0 0 0 0 0 24 0 0 0 0 0 0 0 0 0 0 36 23 0 0 0 0 0 0 0 0 0 0 0 0 0 0 0 
		1 0 0 0 23 0 0 0 0 39 0 0 0 0 30 0 0 0 0 0 0 25 0 0 0 0 23 0 0 0 0 0 0 0 0 0 0 0 0 0 0 0 0 0 0 0 0 0 40 0 0 0 0 0 0 0 0 0 0 0 0 0 0 0 0 0 0 0 0 0 0 0 0 0 0 0 0 0 0 0 0 0 0 24 0 0 0 0 0 
		2 0 0 0 0 0 0 0 27 0 0 0 0 0 0 0 0 0 0 0 0 0 0 0 28 0 0 0 0 0 0 0 0 0 0 0 0 0 0 0 0 0 0 0 0 0 0 0 0 0 0 0 0 0 0 0 0 0 0 33 0 0 0 0 0 0 0 0 0 0 0 0 0 0 0 0 0 0 0 0 0 0 0 0 0 0 0 0 0 
		3 0 23 0 0 0 0 0 0 0 0 0 0 0 0 0 0 0 0 0 0 0 0 0 0 0 20 0 0 0 0 0 0 0 25 0 0 0 0 0 0 0 0 0 0 0 0 0 0 0 0 0 0 0 0 0 0 0 0 0 0 0 0 0 0 0 0 0 0 0 0 0 0 0 0 0 0 0 0 0 0 36 0 34 0 0 0 0 0 
		4 27 0 0 0 0 0 0 0 0 0 0 34 0 0 25 0 0 0 0 0 0 34 0 0 0 31 0 0 0 0 0 0 21 0 27 0 0 0 0 0 0 0 0 0 37 0 0 0 0 0 0 0 0 0 0 0 0 0 24 0 0 0 0 0 0 0 0 0 0 33 0 0 0 0 0 0 0 0 0 0 0 0 0 0 28 0 0 0 
		5 0 0 0 0 0 0 0 0 0 0 0 0 0 21 0 0 0 0 0 0 0 0 0 0 28 0 0 0 0 0 0 0 0 0 0 0 0 0 0 0 0 0 0 0 0 0 0 30 0 0 0 0 38 0 36 0 0 0 0 0 0 0 0 37 0 0 0 0 0 0 0 38 0 0 0 33 0 0 0 0 0 0 0 0 0 0 27 30 
		6 35 0 0 0 0 0 0 0 0 28 0 0 0 0 0 0 0 0 0 0 0 0 0 35 0 35 23 0 0 0 0 0 22 0 0 0 24 34 34 0 0 0 0 0 0 0 0 0 0 0 0 0 38 0 0 0 0 0 0 0 30 0 0 0 39 0 0 0 30 34 0 0 0 32 0 0 0 0 36 0 37 0 0 0 0 0 37 33 
		7 0 0 27 0 0 0 0 0 0 37 0 0 0 0 0 0 0 0 0 0 0 0 0 0 0 0 0 0 0 0 0 0 34 0 0 0 0 0 0 0 0 35 30 23 0 0 0 28 0 0 0 0 0 0 0 0 0 0 0 0 0 0 0 0 0 0 0 0 0 0 0 29 30 0 29 40 0 0 22 31 0 0 0 0 0 0 27 31 
		8 0 39 0 0 0 0 0 0 0 0 0 0 0 0 0 26 0 0 0 0 0 0 0 0 0 0 0 0 0 0 0 0 0 0 0 0 0 34 0 0 0 0 0 0 0 0 0 0 0 31 32 0 0 0 0 0 0 0 0 0 0 0 0 0 0 0 0 0 0 0 0 0 0 0 22 0 0 0 0 0 0 0 0 0 0 0 0 0 
		9 40 0 0 0 0 0 28 37 0 0 0 0 0 0 0 0 0 0 0 0 0 0 0 0 0 0 25 0 0 0 0 37 0 0 0 0 36 0 0 0 0 0 0 0 0 0 0 0 0 0 0 0 0 0 0 0 31 0 0 0 0 0 0 0 0 0 0 0 35 0 0 0 0 0 0 0 0 0 0 21 0 0 0 0 0 0 0 35 
		10 0 0 0 0 0 0 0 0 0 0 0 0 0 0 0 0 0 0 0 0 0 0 0 0 0 0 0 0 0 38 0 0 0 0 0 0 0 0 0 0 0 0 0 0 0 0 27 0 26 0 0 0 39 0 0 0 0 0 0 0 0 0 0 0 0 0 0 0 0 0 0 0 0 0 0 0 0 0 0 0 0 0 22 0 38 0 0 0 
		11 0 0 0 0 34 0 0 0 0 0 0 0 0 0 0 0 0 0 27 0 0 0 0 0 0 0 0 0 0 0 25 0 0 0 0 38 28 30 0 0 0 34 0 0 0 0 0 0 0 0 0 38 0 0 0 0 0 0 0 0 0 0 40 0 0 27 40 30 0 0 0 0 0 0 0 0 0 0 37 0 0 0 0 0 0 0 31 0 
		12 0 0 0 0 0 0 0 0 0 0 0 0 0 0 0 0 0 0 0 0 0 0 0 0 0 0 0 0 0 0 28 0 0 33 0 0 0 0 0 0 0 0 0 0 0 0 0 0 0 0 0 0 0 0 0 0 0 0 0 0 0 0 0 0 0 0 0 0 0 0 0 0 0 0 0 0 0 0 0 0 0 37 0 0 40 0 0 0 
		13 0 30 0 0 0 21 0 0 0 0 0 0 0 0 0 0 27 0 24 0 0 0 0 0 0 0 0 0 0 0 0 0 21 0 0 0 0 0 0 0 0 0 0 0 0 0 0 0 0 0 0 0 37 23 0 0 0 0 0 0 0 0 0 29 32 0 0 0 0 0 0 0 0 0 22 0 0 24 0 35 0 0 0 0 0 0 20 0 
		14 0 0 0 0 25 0 0 0 0 0 0 0 0 0 0 0 0 0 0 0 0 0 0 0 0 24 36 0 0 0 0 25 37 0 0 0 0 37 0 0 0 0 0 0 0 35 0 0 0 0 0 0 23 0 0 0 0 0 0 0 0 0 0 0 0 0 0 0 37 25 0 0 0 0 0 0 0 0 0 0 0 0 0 0 0 37 22 0 
		15 0 0 0 0 0 0 0 0 26 0 0 0 0 0 0 0 0 0 0 0 31 0 0 0 0 0 0 0 0 0 0 0 38 0 0 0 26 0 0 0 35 0 0 0 32 36 0 0 0 0 0 0 0 0 0 0 0 0 0 0 0 0 0 0 21 0 0 0 27 37 0 0 0 0 0 0 0 0 0 0 0 0 33 0 0 0 0 0 
		16 0 0 0 0 0 0 0 0 0 0 0 0 0 27 0 0 0 0 0 0 0 0 38 0 0 0 0 0 32 0 0 0 0 0 0 0 0 0 0 0 0 0 0 0 0 36 0 0 0 40 28 0 0 0 34 0 0 0 0 0 0 0 0 0 0 0 0 0 0 0 32 0 0 0 0 0 0 38 0 0 0 0 0 0 0 0 0 0 
		17 0 0 0 0 0 0 0 0 0 0 0 0 0 0 0 0 0 0 0 28 0 0 0 0 0 0 0 0 0 0 21 0 0 0 0 0 0 0 0 0 0 0 0 0 0 0 0 0 0 0 0 36 0 0 0 0 0 0 0 0 0 0 0 0 0 0 0 0 0 0 0 0 0 0 0 0 0 0 38 0 0 0 0 0 36 0 0 0 
		18 0 0 0 0 0 0 0 0 0 0 0 27 0 24 0 0 0 0 0 0 0 0 34 0 0 0 23 0 29 31 0 0 0 0 32 0 0 0 0 0 0 0 0 0 0 0 0 0 0 0 0 24 0 0 24 0 0 34 0 0 0 0 38 0 0 0 0 0 0 0 0 0 0 0 0 0 26 0 0 0 0 0 0 0 0 0 0 0 
		19 0 0 0 0 0 0 0 0 0 0 0 0 0 0 0 0 0 28 0 0 0 0 0 0 0 0 0 0 0 0 0 0 0 0 29 0 0 0 0 0 0 0 0 0 32 0 0 0 0 0 0 0 0 0 0 0 0 0 0 32 0 0 0 0 0 0 0 0 0 0 0 25 0 0 0 0 0 0 40 0 0 21 0 0 0 0 0 0 
		20 39 25 0 0 0 0 0 0 0 0 0 0 0 0 0 31 0 0 0 0 0 0 0 0 0 0 0 0 0 0 0 0 0 0 0 0 29 0 25 31 0 0 0 0 0 0 0 0 0 0 0 0 0 0 0 0 0 0 0 0 0 0 0 0 0 0 0 0 0 30 0 0 0 0 0 0 0 0 0 0 0 0 21 0 0 0 0 0 
		21 0 0 0 0 34 0 0 0 0 0 0 0 0 0 0 0 0 0 0 0 0 0 0 0 0 0 0 0 0 0 0 0 0 0 0 0 0 0 0 0 0 0 0 0 0 0 37 0 0 0 0 0 0 0 0 0 0 0 0 0 0 0 0 0 0 33 0 0 0 0 23 0 0 0 0 0 0 0 0 0 0 0 0 0 0 0 0 32 
		22 21 0 0 0 0 0 0 0 0 0 0 0 0 0 0 0 38 0 34 0 0 0 0 0 0 0 0 0 0 0 0 0 0 0 0 0 0 0 0 0 0 0 0 0 0 0 0 0 0 0 0 0 0 25 0 0 0 0 0 0 0 0 29 0 0 0 0 0 0 0 0 26 0 0 0 0 0 0 0 0 0 0 0 0 0 40 35 34 
		23 0 0 28 0 0 0 35 0 0 0 0 0 0 0 0 0 0 0 0 0 0 0 0 0 0 0 0 0 0 0 0 0 22 0 0 0 0 0 0 0 38 0 0 0 0 21 0 0 0 0 0 0 0 0 0 0 0 0 0 0 0 24 0 0 0 0 0 0 0 0 0 0 0 0 0 0 0 30 0 0 0 0 0 0 27 31 0 0 
		24 0 0 0 0 0 28 0 0 0 0 0 0 0 0 0 0 0 0 0 0 0 0 0 0 0 0 0 26 28 0 0 0 0 0 0 0 0 0 0 0 21 0 0 0 27 0 0 0 0 0 35 0 0 0 40 0 0 0 0 0 0 0 0 39 0 0 0 32 0 0 0 36 0 0 0 22 0 38 0 0 0 0 0 0 0 0 0 0 
		25 29 23 0 20 31 0 35 0 0 0 0 0 0 0 24 0 0 0 0 0 0 0 0 0 0 0 0 0 0 0 0 0 0 0 0 0 28 0 0 33 0 0 0 0 0 36 23 0 0 0 0 0 0 0 0 0 0 0 0 0 0 0 0 0 0 0 0 0 0 28 29 0 0 0 0 0 0 0 0 0 20 0 27 35 0 0 0 37 
		26 0 0 0 0 0 0 23 0 0 25 0 0 0 0 36 0 0 0 23 0 0 0 0 0 0 0 0 0 0 0 0 32 0 28 0 0 34 0 0 0 0 0 0 37 0 31 0 22 0 0 0 0 0 0 0 21 0 0 0 0 0 0 0 0 0 0 0 26 0 0 0 0 0 0 0 0 0 0 0 0 0 0 0 0 0 0 0 0 
		27 0 0 0 0 0 0 0 0 0 0 0 0 0 0 0 0 0 0 0 0 0 0 0 0 26 0 0 0 0 31 0 0 0 28 39 0 0 0 0 0 0 0 0 0 0 0 0 0 0 0 0 0 0 0 0 0 0 27 0 0 0 0 0 0 0 0 0 0 0 0 0 0 0 0 0 0 0 0 0 0 0 0 0 36 0 0 0 0 
		28 0 0 0 0 0 0 0 0 0 0 0 0 0 0 0 0 32 0 29 0 0 0 0 0 28 0 0 0 0 0 0 0 0 0 0 24 0 0 0 0 0 36 0 0 0 0 0 0 0 23 0 31 0 0 0 0 0 0 0 0 0 0 0 26 0 0 0 0 0 0 0 0 0 0 0 26 0 0 0 24 0 0 0 0 0 0 0 0 
		29 0 0 0 0 0 0 0 0 0 0 38 0 0 0 0 0 0 0 31 0 0 0 0 0 0 0 0 31 0 0 0 26 0 30 0 0 0 37 0 0 0 0 0 33 0 0 0 0 0 21 0 0 0 0 0 0 0 32 0 0 0 0 0 0 0 27 0 36 0 0 26 0 0 0 0 0 0 0 0 0 0 0 0 0 0 0 0 0 
		30 0 0 0 0 0 0 0 0 0 0 0 25 28 0 0 0 0 21 0 0 0 0 0 0 0 0 0 0 0 0 0 0 0 22 0 0 0 0 0 0 0 0 0 0 0 0 0 0 0 32 0 0 0 0 25 0 0 0 0 0 0 0 0 35 0 29 0 0 0 0 0 0 0 0 0 0 0 0 20 0 34 0 0 0 0 35 0 40 
		31 0 0 0 0 0 0 0 0 0 37 0 0 0 0 25 0 0 0 0 0 0 0 0 0 0 0 32 0 0 26 0 0 0 28 0 0 0 0 0 0 0 0 0 26 0 0 0 0 0 0 0 0 0 0 0 0 0 0 0 0 28 0 0 0 0 0 0 0 0 0 0 0 0 0 0 0 25 0 28 0 0 0 0 26 0 0 0 0 
		32 0 0 0 0 21 0 22 34 0 0 0 0 0 21 37 38 0 0 0 0 0 0 0 22 0 0 0 0 0 0 0 0 0 0 0 0 0 32 0 0 0 0 26 38 0 0 36 0 0 0 0 0 0 0 0 0 29 0 0 0 0 0 0 0 34 0 0 0 0 0 34 0 0 0 0 0 0 0 0 0 0 0 0 0 0 36 0 23 
		33 0 0 0 25 0 0 0 0 0 0 0 0 33 0 0 0 0 0 0 0 0 0 0 0 0 0 28 28 0 30 22 28 0 0 0 0 0 0 0 0 0 0 0 0 0 0 0 0 0 31 0 0 0 0 0 0 0 0 0 31 0 0 0 0 0 0 0 0 0 0 0 0 0 0 0 0 0 0 0 0 0 24 0 0 29 0 0 0 
		34 0 0 0 0 27 0 0 0 0 0 0 0 0 0 0 0 0 0 32 29 0 0 0 0 0 0 0 39 0 0 0 0 0 0 0 28 0 0 0 0 0 0 0 0 0 0 0 0 0 0 0 20 0 27 31 0 0 0 0 28 0 0 0 0 0 0 0 0 0 0 0 0 0 0 0 0 40 0 0 0 0 0 0 0 0 0 0 0 
		35 0 0 0 0 0 0 0 0 0 0 0 38 0 0 0 0 0 0 0 0 0 0 0 0 0 0 0 0 24 0 0 0 0 0 28 0 0 25 0 0 0 0 28 0 0 0 0 0 0 0 0 0 0 0 0 0 0 0 0 0 0 0 38 0 0 0 0 0 0 0 0 0 36 0 0 0 0 0 0 0 0 0 0 0 0 0 35 0 
		36 0 0 0 0 0 0 24 0 0 36 0 28 0 0 0 26 0 0 0 0 29 0 0 0 0 28 34 0 0 0 0 0 0 0 0 0 0 20 0 0 0 0 0 0 0 0 0 0 0 0 0 0 0 0 0 0 0 0 0 0 0 0 0 29 0 0 0 0 0 21 0 0 0 0 0 22 35 0 0 0 39 27 0 0 0 0 39 0 
		37 0 0 0 0 0 0 34 0 34 0 0 30 0 0 37 0 0 0 0 0 0 0 0 0 0 0 0 0 0 37 0 0 32 0 0 25 20 0 0 0 0 34 0 0 0 33 0 0 0 20 0 0 0 0 0 0 34 0 0 0 0 0 0 0 0 0 0 0 38 0 0 32 0 28 0 0 0 0 0 32 0 28 38 31 0 0 24 0 
		38 0 0 0 0 0 0 34 0 0 0 0 0 0 0 0 0 0 0 0 0 25 0 0 0 0 0 0 0 0 0 0 0 0 0 0 0 0 0 0 20 0 0 0 34 0 0 0 0 0 0 0 0 0 0 0 0 0 0 0 0 0 0 0 0 0 0 0 0 0 0 0 0 0 0 0 0 0 23 0 0 0 0 0 0 0 0 27 0 
		39 0 0 0 0 0 0 0 0 0 0 0 0 0 0 0 0 0 0 0 0 31 0 0 0 0 33 0 0 0 0 0 0 0 0 0 0 0 0 20 0 0 0 0 0 0 0 0 0 0 0 0 0 0 0 0 0 0 0 0 0 0 0 0 0 39 0 0 0 0 33 39 0 29 0 0 0 0 0 0 0 29 0 35 40 0 0 0 0 
		40 0 0 0 0 0 0 0 0 0 0 0 0 0 0 0 35 0 0 0 0 0 0 0 38 21 0 0 0 0 0 0 0 0 0 0 0 0 0 0 0 0 0 0 0 39 0 0 0 0 0 0 0 0 0 0 0 0 0 0 0 0 0 0 33 0 0 0 0 0 0 0 0 0 0 30 0 0 0 0 0 0 0 0 0 0 0 0 0 
		41 0 0 0 0 0 0 0 35 0 0 0 34 0 0 0 0 0 0 0 0 0 0 0 0 0 0 0 0 36 0 0 0 0 0 0 0 0 34 0 0 0 0 0 39 0 0 35 0 0 0 0 0 0 0 0 0 0 26 0 0 0 0 0 0 0 0 0 20 0 0 0 0 0 0 0 0 0 0 33 27 0 0 0 0 0 0 0 0 
		42 0 0 0 0 0 0 0 30 0 0 0 0 0 0 0 0 0 0 0 0 0 0 0 0 0 0 0 0 0 0 0 0 26 0 0 28 0 0 0 0 0 0 0 0 0 0 0 0 0 25 0 0 0 0 0 0 0 0 0 0 27 31 0 0 0 0 0 0 0 0 0 21 0 0 0 28 34 0 0 0 0 0 0 0 0 0 0 0 
		43 0 0 0 0 0 0 0 23 0 0 0 0 0 0 0 0 0 0 0 0 0 0 0 0 0 0 37 0 0 33 0 26 38 0 0 0 0 0 34 0 0 39 0 0 0 0 0 0 0 0 0 0 0 0 0 0 0 0 0 0 26 39 0 0 0 0 0 0 0 0 39 0 0 0 0 28 0 0 37 33 0 0 23 0 0 0 31 0 
		44 37 0 0 0 37 0 0 0 0 0 0 0 0 0 0 32 0 0 0 32 0 0 0 0 27 0 0 0 0 0 0 0 0 0 0 0 0 0 0 0 39 0 0 0 0 0 0 0 0 0 0 27 0 0 0 33 0 0 0 0 0 0 0 0 0 0 0 0 0 0 0 0 0 0 0 0 24 0 24 0 0 38 0 0 0 0 0 0 
		45 0 0 0 0 0 0 0 0 0 0 0 0 0 0 35 36 36 0 0 0 0 0 0 21 0 36 31 0 0 0 0 0 0 0 0 0 0 33 0 0 0 0 0 0 0 0 0 0 0 0 0 0 20 0 0 0 0 0 0 0 0 0 0 0 0 0 0 0 0 0 0 0 0 0 0 0 0 0 0 0 0 0 0 0 0 0 22 0 
		46 0 0 0 0 0 0 0 0 0 0 27 0 0 0 0 0 0 0 0 0 0 37 0 0 0 23 0 0 0 0 0 0 36 0 0 0 0 0 0 0 0 35 0 0 0 0 0 0 0 0 0 0 0 0 0 0 0 0 0 0 0 0 0 0 0 40 0 0 0 0 0 0 0 33 0 34 0 0 0 0 0 0 0 0 0 0 29 0 
		47 0 40 0 0 0 30 0 28 0 0 0 0 0 0 0 0 0 0 0 0 0 0 0 0 0 0 22 0 0 0 0 0 0 0 0 0 0 0 0 0 0 0 0 0 0 0 0 0 0 0 0 0 0 0 0 0 0 0 0 0 30 0 0 0 0 0 0 25 0 0 0 0 25 0 0 0 0 37 0 36 0 0 0 33 0 39 0 0 
		48 0 0 0 0 0 0 0 0 0 0 26 0 0 0 0 0 0 0 0 0 0 0 0 0 0 0 0 0 0 0 0 0 0 0 0 0 0 0 0 0 0 0 0 0 0 0 0 0 0 0 0 0 0 0 0 0 0 0 0 0 39 0 0 0 0 0 0 0 0 0 0 0 0 0 0 0 0 0 0 0 0 0 21 0 0 0 0 0 
		49 0 0 0 0 0 0 0 0 31 0 0 0 0 0 0 0 40 0 0 0 0 0 0 0 0 0 0 0 23 21 32 0 0 31 0 0 0 20 0 0 0 0 25 0 0 0 0 0 0 0 39 0 0 0 0 0 0 0 0 0 0 0 0 0 0 0 0 0 0 0 0 0 0 27 0 0 0 0 0 0 0 0 0 0 0 0 0 0 
		50 0 0 0 0 0 0 0 0 32 0 0 0 0 0 0 0 28 0 0 0 0 0 0 0 35 0 0 0 0 0 0 0 0 0 0 0 0 0 0 0 0 0 0 0 0 0 0 0 0 39 0 0 0 0 0 0 0 30 0 0 0 0 37 0 0 0 0 39 0 0 0 0 0 0 0 0 26 0 0 0 0 0 0 0 0 0 0 0 
		51 0 0 0 0 0 0 0 0 0 0 0 38 0 0 0 0 0 36 24 0 0 0 0 0 0 0 0 0 31 0 0 0 0 0 20 0 0 0 0 0 0 0 0 0 27 0 0 0 0 0 0 0 0 0 0 0 21 0 0 0 0 0 28 0 0 0 0 0 0 0 0 0 0 0 0 0 0 0 0 24 0 37 0 0 23 31 0 0 
		52 31 0 0 0 0 38 38 0 0 0 39 0 0 37 23 0 0 0 0 0 0 0 0 0 0 0 0 0 0 0 0 0 0 0 0 0 0 0 0 0 0 0 0 0 0 20 0 0 0 0 0 0 0 0 0 0 0 0 0 0 0 0 0 0 0 0 37 0 0 21 0 0 0 0 0 0 0 0 0 0 0 0 0 0 0 21 0 0 
		53 0 0 0 0 0 0 0 0 0 0 0 0 0 23 0 0 0 0 0 0 0 0 25 0 0 0 0 0 0 0 0 0 0 0 27 0 0 0 0 0 0 0 0 0 0 0 0 0 0 0 0 0 0 0 0 0 0 0 0 0 0 0 35 0 0 0 0 0 0 0 0 0 25 0 0 0 0 0 0 0 0 0 0 0 0 0 0 0 
		54 0 0 0 0 0 36 0 0 0 0 0 0 0 0 0 0 34 0 24 0 0 0 0 0 40 0 0 0 0 0 25 0 0 0 31 0 0 0 0 0 0 0 0 0 0 0 0 0 0 0 0 0 0 0 0 25 0 0 0 0 0 0 0 0 0 0 0 33 0 0 0 0 0 0 0 0 0 0 0 0 0 0 0 0 0 0 0 0 
		55 0 0 0 0 0 0 0 0 0 0 0 0 0 0 0 0 0 0 0 0 0 0 0 0 0 0 21 0 0 0 0 0 0 0 0 0 0 0 0 0 0 0 0 0 33 0 0 0 0 0 0 0 0 0 25 0 0 0 0 0 0 0 0 0 0 33 0 25 26 0 0 0 0 34 0 0 0 0 0 0 0 24 0 0 0 0 0 0 
		56 0 0 0 0 0 0 0 0 0 31 0 0 0 0 0 0 0 0 0 0 0 0 0 0 0 0 0 0 0 0 0 0 29 0 0 0 0 34 0 0 0 0 0 0 0 0 0 0 0 0 0 21 0 0 0 0 0 0 39 0 25 0 0 0 0 0 0 0 27 0 0 0 0 0 0 0 32 0 0 0 0 0 0 0 0 25 0 25 
		57 0 0 0 0 0 0 0 0 0 0 0 0 0 0 0 0 0 0 34 0 0 0 0 0 0 0 0 27 0 32 0 0 0 0 0 0 0 0 0 0 0 26 0 0 0 0 0 0 0 0 30 0 0 0 0 0 0 0 0 0 0 0 0 0 0 0 0 0 0 0 0 0 0 0 0 0 0 0 0 0 0 27 0 0 0 0 0 0 
		58 0 0 33 0 24 0 0 0 0 0 0 0 0 0 0 0 0 0 0 0 0 0 0 0 0 0 0 0 0 0 0 0 0 0 0 0 0 0 0 0 0 0 0 0 0 0 0 0 0 0 0 0 0 0 0 0 39 0 0 0 36 0 0 0 39 0 0 0 26 22 0 0 0 0 0 31 0 0 0 0 0 0 26 0 0 40 29 0 
		59 0 0 0 0 0 0 0 0 0 0 0 0 0 0 0 0 0 0 0 32 0 0 0 0 0 0 0 0 0 0 0 0 0 31 28 0 0 0 0 0 0 0 0 0 0 0 0 0 0 0 0 0 0 0 0 0 0 0 0 0 0 0 0 0 0 0 0 0 0 0 22 0 0 23 0 0 0 0 0 0 0 0 0 0 0 0 0 0 
		60 24 0 0 0 0 0 30 0 0 0 0 0 0 0 0 0 0 0 0 0 0 0 0 0 0 0 0 0 0 0 0 28 0 0 0 0 0 0 0 0 0 0 27 26 0 0 0 30 39 0 0 0 0 0 0 0 25 0 36 0 0 29 0 0 24 0 0 0 0 0 0 0 0 0 0 0 0 0 0 27 20 0 0 0 0 0 0 0 
		61 0 0 0 0 0 0 0 0 0 0 0 0 0 0 0 0 0 0 0 0 0 0 0 24 0 0 0 0 0 0 0 0 0 0 0 0 0 0 0 0 0 0 31 39 0 0 0 0 0 0 0 0 0 0 0 0 0 0 0 0 29 0 0 33 0 0 0 0 0 25 0 33 0 0 0 0 0 0 0 0 0 0 0 0 0 0 0 0 
		62 0 0 0 0 0 0 0 0 0 0 0 40 0 0 0 0 0 0 38 0 0 0 29 0 0 0 0 0 0 0 0 0 0 0 0 38 0 0 0 0 0 0 0 0 0 0 0 0 0 0 37 28 0 35 0 0 0 0 0 0 0 0 0 0 0 0 0 0 0 0 0 0 0 0 0 0 0 0 0 0 0 0 0 0 0 0 0 0 
		63 0 0 0 0 0 37 0 0 0 0 0 0 0 29 0 0 0 0 0 0 0 0 0 0 39 0 0 0 26 0 35 0 0 0 0 0 29 0 0 0 33 0 0 0 0 0 0 0 0 0 0 0 0 0 0 0 0 0 0 0 0 33 0 0 0 0 0 0 0 0 0 0 0 0 0 0 0 0 0 36 0 0 0 0 0 0 0 0 
		64 0 0 0 0 0 0 39 0 0 0 0 0 0 32 0 21 0 0 0 0 0 0 0 0 0 0 0 0 0 0 0 0 34 0 0 0 0 0 0 39 0 0 0 0 0 0 0 0 0 0 0 0 0 0 0 0 0 0 39 0 24 0 0 0 0 0 0 0 0 0 0 0 0 0 25 36 0 0 0 0 0 0 0 0 0 0 0 0 
		65 0 0 0 0 0 0 0 0 0 0 0 27 0 0 0 0 0 0 0 0 0 33 0 0 0 0 0 0 0 27 29 0 0 0 0 0 0 0 0 0 0 0 0 0 0 0 40 0 0 0 0 0 0 0 0 33 0 0 0 0 0 0 0 0 0 0 0 24 0 0 0 0 0 0 0 0 0 31 0 32 0 0 33 0 40 0 0 0 
		66 0 0 0 0 0 0 0 0 0 0 0 40 0 0 0 0 0 0 0 0 0 0 0 0 0 0 0 0 0 0 0 0 0 0 0 0 0 0 0 0 0 0 0 0 0 0 0 0 0 0 0 0 37 0 0 0 0 0 0 0 0 0 0 0 0 0 0 0 0 0 0 0 0 0 0 0 0 0 36 0 0 40 0 0 0 0 0 0 
		67 0 0 0 0 0 0 0 0 0 0 0 30 0 0 0 0 0 0 0 0 0 0 0 0 32 0 26 0 0 36 0 0 0 0 0 0 0 0 0 0 0 20 0 0 0 0 0 25 0 0 39 0 0 0 33 25 0 0 0 0 0 0 0 0 0 24 0 0 0 0 0 24 0 0 0 37 0 0 39 37 0 27 0 0 0 0 0 21 
		68 0 0 0 0 0 0 30 0 0 35 0 0 0 0 37 27 0 0 0 0 0 0 0 0 0 0 0 0 0 0 0 0 0 0 0 0 0 38 0 0 0 0 0 0 0 0 0 0 0 0 0 0 0 0 0 26 27 0 26 0 0 0 0 0 0 0 0 0 0 0 0 0 0 0 0 0 0 0 0 28 0 0 30 0 0 0 23 0 
		69 0 0 0 0 33 0 34 0 0 0 0 0 0 0 25 37 0 0 0 0 30 0 0 0 0 28 0 0 0 0 0 0 0 0 0 0 21 0 0 33 0 0 0 0 0 0 0 0 0 0 0 0 21 0 0 0 0 0 22 0 0 25 0 0 0 0 0 0 0 0 0 0 0 0 0 0 0 0 0 0 0 0 24 0 0 0 0 0 
		70 0 0 0 0 0 0 0 0 0 0 0 0 0 0 0 0 32 0 0 0 0 23 0 0 0 29 0 0 0 26 0 0 34 0 0 0 0 0 0 39 0 0 0 39 0 0 0 0 0 0 0 0 0 0 0 0 0 0 0 22 0 0 0 0 0 0 0 0 0 0 0 28 0 0 0 0 25 0 0 0 0 0 0 35 0 0 0 0 
		71 36 0 0 0 0 38 0 29 0 0 0 0 0 0 0 0 0 0 0 25 0 0 26 0 36 0 0 0 0 0 0 0 0 0 0 0 0 32 0 0 0 0 21 0 0 0 0 0 0 0 0 0 0 0 0 0 0 0 0 0 0 33 0 0 0 0 0 24 0 0 28 0 0 0 0 0 0 0 20 0 0 0 0 40 0 38 30 25 
		72 23 0 0 0 0 0 0 30 0 0 0 0 0 0 0 0 0 0 0 0 0 0 0 0 0 0 0 0 0 0 0 0 0 0 0 36 0 0 0 29 0 0 0 0 0 0 0 25 0 0 0 0 0 25 0 0 0 0 0 0 0 0 0 0 0 0 0 0 0 0 0 0 0 0 0 0 0 0 0 0 0 0 0 0 0 0 0 0 
		73 0 0 0 0 0 0 32 0 0 0 0 0 0 0 0 0 0 0 0 0 0 0 0 0 0 0 0 0 0 0 0 0 0 0 0 0 0 28 0 0 0 0 0 0 0 0 33 0 0 27 0 0 0 0 0 34 0 0 0 23 0 0 0 0 0 0 0 0 0 0 0 0 0 0 0 0 0 0 0 38 0 0 0 0 23 39 0 22 
		74 0 0 0 0 0 0 0 29 22 0 0 0 0 22 0 0 0 0 0 0 0 0 0 0 0 0 0 0 0 0 0 0 0 0 0 0 0 0 0 0 30 0 0 0 0 0 0 0 0 0 0 0 0 0 0 0 0 0 0 0 0 0 0 0 25 0 0 0 0 0 0 0 0 0 0 0 36 31 0 0 0 0 0 0 0 0 0 0 
		75 0 0 0 0 0 33 0 40 0 0 0 0 0 0 0 0 0 0 0 0 0 0 0 0 22 0 0 0 26 0 0 0 0 0 0 0 22 0 0 0 0 0 28 28 0 0 34 0 0 0 0 0 0 0 0 0 0 0 31 0 0 0 0 0 36 0 0 37 0 0 0 0 0 0 0 0 0 34 0 0 0 0 0 0 0 20 0 0 
		76 0 0 0 0 0 0 0 0 0 0 0 0 0 0 0 0 0 0 26 0 0 0 0 0 0 0 0 0 0 0 0 25 0 0 40 0 35 0 0 0 0 0 34 0 24 0 0 0 0 0 26 0 0 0 0 0 32 0 0 0 0 0 0 0 0 0 0 0 0 0 25 0 0 0 36 0 0 0 0 0 0 26 0 0 0 0 20 0 
		77 0 0 0 0 0 0 0 0 0 0 0 0 0 24 0 0 38 0 0 0 0 0 0 30 38 0 0 0 0 0 0 0 0 0 0 0 0 0 23 0 0 0 0 0 0 0 0 37 0 0 0 0 0 0 0 0 0 0 0 0 0 0 0 0 0 31 0 0 0 0 0 0 0 0 31 34 0 0 0 0 0 0 0 0 0 0 0 0 
		78 0 0 0 0 0 0 36 22 0 0 0 37 0 0 0 0 0 38 0 40 0 0 0 0 0 0 0 0 0 0 20 28 0 0 0 0 0 0 0 0 0 33 0 37 24 0 0 0 0 0 0 0 0 0 0 0 0 0 0 0 0 0 0 0 0 0 36 39 0 0 0 20 0 0 0 0 0 0 0 0 0 0 24 0 0 0 0 40 
		79 0 0 0 0 0 0 0 31 0 21 0 0 0 35 0 0 0 0 0 0 0 0 0 0 0 0 0 0 24 0 0 0 0 0 0 0 0 32 0 0 0 27 0 33 0 0 0 36 0 0 0 24 0 0 0 0 0 0 0 0 27 0 0 36 0 32 0 37 28 0 0 0 0 38 0 0 0 0 0 0 0 30 0 0 0 0 0 0 
		80 0 0 0 36 0 0 37 0 0 0 0 0 0 0 0 0 0 0 0 0 0 0 0 0 0 20 0 0 0 0 34 0 0 0 0 0 39 0 0 29 0 0 0 0 0 0 0 0 0 0 0 0 0 0 0 0 0 0 0 0 20 0 0 0 0 0 0 0 0 0 0 0 0 0 0 0 0 0 0 0 0 0 0 0 0 34 28 21 
		81 0 0 0 0 0 0 0 0 0 0 0 0 37 0 0 0 0 0 0 21 0 0 0 0 0 0 0 0 0 0 0 0 0 24 0 0 27 28 0 0 0 0 0 0 38 0 0 0 0 0 0 37 0 0 0 24 0 27 0 0 0 0 0 0 0 0 40 27 0 0 0 0 0 0 0 0 26 0 0 30 0 0 0 0 0 0 0 0 
		82 0 24 0 34 0 0 0 0 0 0 22 0 0 0 0 33 0 0 0 0 21 0 0 0 0 27 0 0 0 0 0 0 0 0 0 0 0 38 0 35 0 0 0 23 0 0 0 0 21 0 0 0 0 0 0 0 0 0 26 0 0 0 0 0 0 33 0 0 30 24 0 0 0 0 0 0 0 0 24 0 0 0 0 0 0 0 0 33 
		83 0 0 0 0 0 0 0 0 0 0 0 0 0 0 0 0 0 0 0 0 0 0 0 0 0 35 0 36 0 0 0 26 0 0 0 0 0 31 0 40 0 0 0 0 0 0 0 33 0 0 0 0 0 0 0 0 0 0 0 0 0 0 0 0 0 0 0 0 0 0 35 40 0 0 0 0 0 0 0 0 0 0 0 0 0 0 0 40 
		84 0 0 0 0 28 0 0 0 0 0 38 0 40 0 0 0 0 36 0 0 0 0 0 27 0 0 0 0 0 0 0 0 0 29 0 0 0 0 0 0 0 0 0 0 0 0 0 0 0 0 0 23 0 0 0 0 0 0 0 0 0 0 0 0 0 40 0 0 0 0 0 0 0 23 0 0 0 0 0 0 0 0 0 0 0 0 0 0 
		85 0 0 0 0 0 0 0 0 0 0 0 0 0 0 37 0 0 0 0 0 0 0 40 31 0 0 0 0 0 0 35 0 36 0 0 0 0 0 0 0 0 0 0 0 0 0 0 39 0 0 0 31 21 0 0 0 25 0 40 0 0 0 0 0 0 0 0 0 0 0 0 38 0 39 0 20 0 0 0 0 34 0 0 0 0 0 0 28 
		86 0 0 0 0 0 27 37 27 0 0 0 31 0 20 22 0 0 0 0 0 0 0 35 0 0 0 0 0 0 0 0 0 0 0 0 35 39 24 27 0 0 0 0 31 0 22 29 0 0 0 0 0 0 0 0 0 0 0 29 0 0 0 0 0 0 0 0 0 23 0 0 30 0 0 0 0 20 0 0 0 28 0 0 0 0 0 0 0 
		87 0 0 0 0 0 30 33 31 0 35 0 0 0 0 0 0 0 0 0 0 0 32 34 0 0 37 0 0 0 0 40 0 23 0 0 0 0 0 0 0 0 0 0 0 0 0 0 0 0 0 0 0 0 0 0 0 25 0 0 0 0 0 0 0 0 0 0 21 0 0 0 25 0 22 0 0 0 0 40 0 21 0 33 40 0 28 0 0 
;
